(declare-sort A 0)
(declare-fun f (A) A)
(declare-fun g (A) A)
(declare-const b A)
(declare-const a A)
(assert (or (= (f (g a)) a) (= (f (g b)) a)))
(assert (= (g a) a))
(assert (or (not (= (g b) (g b))) (= (g b) a)))
(assert (not (= (f a) a)))